This is Ipopt version 3.10.2, running with linear solver mumps.

Number of nonzeros in equality constraint Jacobian...:    10864
Number of nonzeros in inequality constraint Jacobian.:        0
Number of nonzeros in Lagrangian Hessian.............:    81268

Total number of variables............................:    10864
                     variables with only lower bounds:        0
                variables with lower and upper bounds:        0
                     variables with only upper bounds:        0
Total number of equality constraints.................:        1
Total number of inequality constraints...............:        0
        inequality constraints with only lower bounds:        0
   inequality constraints with lower and upper bounds:        0
        inequality constraints with only upper bounds:        0

iter    objective    inf_pr   inf_du lg(mu)  ||d||  lg(rg) alpha_du alpha_pr  ls
   0  1.2438593e+01 8.28e-03 4.79e-02   0.0 0.00e+00    -  0.00e+00 0.00e+00   0
   1  1.2663843e+01 1.97e-03 2.36e-03 -11.0 3.44e-02  -2.0 1.00e+00 1.00e+00h  1
   2  1.2611926e+01 1.72e-05 5.37e-03 -11.0 3.93e-02    -  1.00e+00 1.00e+00F  1
   3  1.2611477e+01 2.75e-07 9.83e-04 -11.0 1.78e-02    -  1.00e+00 1.00e+00H  1
   4  1.2611383e+01 5.27e-07 6.98e-03 -11.0 3.21e-02    -  1.00e+00 1.00e+00H  1
   5  1.2611089e+01 2.41e-08 1.77e-04 -11.0 5.76e-03    -  1.00e+00 1.00e+00H  1
